48, 1357
626, 3184
1518, 1978
1883, 3957
790, 1568
1888, 2443
1821, 2270
1024, 1817
2037, 1990
729, 4378
882, 1505
593, 4662
926, 2308
1194, 4645
1183, 3277
1732, 4026
1232, 4393
501, 2265
1713, 3351
2449, 2870
1001, 1810
645, 4675
2356, 3516
929, 2226
1990, 3026
640, 2116
1738, 1737
1525, 2512
1404, 1980
1136, 1830
1045, 1597
1878, 3441
2405, 4592
612, 4462
930, 4141
1464, 1911
873, 2759
593, 3516
634, 1009
1157, 4561
1984, 4885
967, 4701
585, 2858
2286, 4380
2398, 4042
1894, 4963
1918, 2582
500, 4336
2172, 3137